(set-logic HORN)
(declare-fun state (Int Int (Array Int Int) (Array Int Int) Int Int Int Int Bool Bool Bool Int Int Bool (Array Int Int) (Array Int Int) Bool Bool (Array Int Int) Int Int Bool Bool Bool) Bool)
(assert (forall ((|.y.11| Int) (|.y.12| Int) (|main@%shadow.mem1.0_0_3| (Array Int Int)) (|main@%shadow.mem.0_0_3| (Array Int Int)) (|main@%_6_0_3| Int) (|main@%_5_0_3| Int) (|main@%i.1.i_0_1| Int) (|main@%_3_0_3| Int) (|.loc.13| Bool) (|.loc.14| Bool) (|main@%_29_0| Bool) (|main@%_23_0_0| Int) (|main@%_28_0| Int) (|main@_bb6_0| Bool) (|main@%shadow.mem.1_1| (Array Int Int)) (|main@%shadow.mem.1_0| (Array Int Int)) (|tuple(main@_bb7_0, main@_bb9_0)| Bool) (|main@_bb7_0| Bool) (|main@%_17_0| (Array Int Int)) (|main@%_27_0_0| Int) (|main@%_27_0| Int) (|main@_bb5_0_0| Bool) (|main@%_25_0| Bool) (|tuple(main@_bb6_0, main@_bb9_0)| Bool) (|.loc.23| Bool) (|.y.20| Int) (|.y.21| Int) (|.y.17| (Array Int Int)) (|.y.18| (Array Int Int)) (|.y.19| Int) (|.y.22| Int) (|.loc.24| Bool) (|.y.15| Int) (|.y.16| Int) (|.xtv.1| Bool) (|.xtv.2| Int) (|.xtv.3| Int) (|.xtv.4| Bool) (|.xtv.5| (Array Int Int)) (|.xtv.6| (Array Int Int)) (|.xtv.7| Bool) (|.xtv.8| Bool) (|.xtv.9| (Array Int Int)) (|.xtv.10| Int) (|.xtv.11| Int) (|.xtv.12| Bool) (|.xtv.13| Bool) (|.xtv.14| Bool)) (=> (and (not .loc.13) (not .loc.14)) (state |.y.11| |.y.12| |main@%shadow.mem1.0_0_3| |main@%shadow.mem.0_0_3| |main@%_6_0_3| |main@%_5_0_3| |main@%i.1.i_0_1| |main@%_3_0_3| |.loc.13| |.loc.14| |main@%_29_0| |main@%_23_0_0| |main@%_28_0| |main@_bb6_0| |main@%shadow.mem.1_1| |main@%shadow.mem.1_0| |tuple(main@_bb7_0, main@_bb9_0)| |main@_bb7_0| |main@%_17_0| |main@%_27_0_0| |main@%_27_0| |main@_bb5_0_0| |main@%_25_0| |tuple(main@_bb6_0, main@_bb9_0)|))))
(assert (forall ((|.y.11| Int) (|.y.12| Int) (|main@%shadow.mem1.0_0_3| (Array Int Int)) (|main@%shadow.mem.0_0_3| (Array Int Int)) (|main@%_6_0_3| Int) (|main@%_5_0_3| Int) (|main@%i.1.i_0_1| Int) (|main@%_3_0_3| Int) (|.loc.13| Bool) (|.loc.14| Bool) (|main@%_29_0| Bool) (|main@%_23_0_0| Int) (|main@%_28_0| Int) (|main@_bb6_0| Bool) (|main@%shadow.mem.1_1| (Array Int Int)) (|main@%shadow.mem.1_0| (Array Int Int)) (|tuple(main@_bb7_0, main@_bb9_0)| Bool) (|main@_bb7_0| Bool) (|main@%_17_0| (Array Int Int)) (|main@%_27_0_0| Int) (|main@%_27_0| Int) (|main@_bb5_0_0| Bool) (|main@%_25_0| Bool) (|tuple(main@_bb6_0, main@_bb9_0)| Bool) (|.loc.23| Bool) (|.y.20| Int) (|.y.21| Int) (|.y.17| (Array Int Int)) (|.y.18| (Array Int Int)) (|.y.19| Int) (|.y.22| Int) (|.loc.24| Bool) (|.y.15| Int) (|.y.16| Int) (|.xtv.1| Bool) (|.xtv.2| Int) (|.xtv.3| Int) (|.xtv.4| Bool) (|.xtv.5| (Array Int Int)) (|.xtv.6| (Array Int Int)) (|.xtv.7| Bool) (|.xtv.8| Bool) (|.xtv.9| (Array Int Int)) (|.xtv.10| Int) (|.xtv.11| Int) (|.xtv.12| Bool) (|.xtv.13| Bool) (|.xtv.14| Bool)) (=> (and (state |.y.11| |.y.12| |main@%shadow.mem1.0_0_3| |main@%shadow.mem.0_0_3| |main@%_6_0_3| |main@%_5_0_3| |main@%i.1.i_0_1| |main@%_3_0_3| |.loc.13| |.loc.14| |main@%_29_0| |main@%_23_0_0| |main@%_28_0| |main@_bb6_0| |main@%shadow.mem.1_1| |main@%shadow.mem.1_0| |tuple(main@_bb7_0, main@_bb9_0)| |main@_bb7_0| |main@%_17_0| |main@%_27_0_0| |main@%_27_0| |main@_bb5_0_0| |main@%_25_0| |tuple(main@_bb6_0, main@_bb9_0)|) (let ((.def_34 (not .loc.13))) (let ((.def_35 (not .loc.14))) (let ((.def_37 (select main@%shadow.mem1.0_0_3 main@%_23_0_0))) (let ((.def_54 (= (+ main@%_5_0_3 (+ main@%i.1.i_0_1 (* (- 1) main@%_23_0_0))) 0))) (let ((.def_56 (not (<= main@%_3_0_3 main@%i.1.i_0_1)))) (let ((.def_60 (<= main@%_5_0_3 0))) (let ((.def_61 (or (not (<= main@%_23_0_0 0)) .def_60))) (let ((.def_63 (not .def_60))) (let ((.def_68 (<= main@%_6_0_3 0))) (let ((.def_69 (or (not (<= main@%_27_0_0 0)) .def_68))) (let ((.def_71 (not .def_68))) (let ((.def_83 (not .loc.23))) (let ((.def_87 (<= main@%_3_0_3 .y.11))) (let ((.def_90 (= main@%shadow.mem1.0_0_3 .y.17))) (let ((.def_93 (= main@%shadow.mem.0_0_3 .y.18))) (let ((.def_96 (= main@%_6_0_3 .y.19))) (let ((.def_100 (= main@%_3_0_3 .y.22))) (let ((.def_103 (not main@_bb6_0))) (let ((.def_116 (not main@_bb7_0))) (let ((.def_129 (and main@_bb6_0 |tuple(main@_bb6_0, main@_bb9_0)|))) (let ((.def_133 (and |tuple(main@_bb7_0, main@_bb9_0)| main@_bb7_0))) (let ((.def_139 (not |tuple(main@_bb7_0, main@_bb9_0)|))) (let ((.def_144 (and main@_bb6_0 main@_bb7_0))) (let ((.def_176 (= main@%_5_0_3 .y.20))) (let ((.def_192 (not .loc.24))) (let ((.def_201 (and main@%_29_0 main@_bb5_0_0))) (let ((.def_202 (not main@%_29_0))) (let ((.def_216 (<= main@%i.1.i_0_1 0))) (let ((.def_224 (and main@%_29_0 |tuple(main@_bb7_0, main@_bb9_0)|))) (let ((.def_238 (and main@%_29_0 main@_bb6_0))) (let ((.def_242 (not .def_238))) (or (or (and (or (or (and (and .def_34 (and .loc.14 (and (= .def_37 10) (and (not (= (select main@%shadow.mem.0_0_3 main@%_27_0_0) 20)) (and (and (and (= (+ main@%_6_0_3 (+ main@%i.1.i_0_1 (* (- 1) main@%_27_0_0))) 0) (and (and (and .def_54 .def_56) .def_61) .def_63)) .def_69) .def_71))))) .loc.23) (and (and (= main@%i.1.i_0_1 .y.20) (and (and (and (and (and (= .y.21 0) (and .def_35 (and .loc.13 .def_83))) .def_87) .def_90) .def_93) .def_96)) .def_100)) (and (and (or .def_54 .def_103) (and (or .def_61 .def_103) (and (or .def_63 .def_103) (and (or .def_103 (= main@%_27_0_0 .def_37)) (and (or .def_103 (= main@%_25_0 (= main@%_27_0_0 10))) (and (or (= (+ main@%_6_0_3 (+ main@%i.1.i_0_1 (* (- 1) main@%_27_0))) 0) .def_116) (and (or .def_116 (or .def_68 (not (<= main@%_27_0 0)))) (and (or .def_71 .def_116) (and (or .def_116 (= main@%_28_0 (select main@%shadow.mem.0_0_3 main@%_27_0))) (and (= (+ main@%i.1.i_0_1 (* (- 1) .y.21)) (- 1)) (and .def_100 (and .def_96 (and .def_93 (and .def_90 (and .def_83 (and .def_34 (and .loc.14 (and .def_56 (and (or (not .def_129) (not main@%_25_0)) (and (or main@%_29_0 (not .def_133)) (and (or .def_129 .def_133) (and (or main@_bb6_0 (not |tuple(main@_bb6_0, main@_bb9_0)|)) (and (or main@_bb7_0 .def_139) (and (or .def_116 (= main@%_29_0 (= main@%_28_0 20))) (and (or main@%_25_0 (not .def_144)) (and (or .def_103 (and main@_bb6_0 main@_bb5_0_0)) (or .def_116 .def_144))))))))))))))))))))))))))) .def_176)) .loc.24) (and (= .y.11 .y.20) (and (not (<= .y.22 0)) (and (not (<= .y.21 0)) (and (not (<= .y.19 0)) (and (= .y.15 0) (and (and .def_35 (and .def_34 .loc.23)) .def_192))))))) (and (= main@%i.1.i_0_1 .y.21) (and (or .def_201 .def_202) (and (or (not .def_201) (not .def_87)) (and (or .def_202 (= main@%_5_0_3 main@%_27_0)) (and (or .def_202 (= (+ .y.11 (+ main@%i.1.i_0_1 (* (- 1) main@%_28_0))) 0)) (and (or .def_202 (or (not (<= main@%_28_0 0)) .def_216)) (and (or .def_202 (not .def_216)) (and (or .def_202 (= main@_bb7_0 (= main@%_23_0_0 10))) (and (or .def_139 .def_224) (and (or main@_bb7_0 (not .def_224)) (and (or .def_139 (= (+ .y.11 (+ main@%_6_0_3 (* (- 1) main@%_27_0_0))) 0)) (and (or .def_69 .def_139) (and (or .def_71 .def_139) (and (or .def_139 (= main@%_17_0 (store main@%shadow.mem.0_0_3 main@%_27_0_0 20))) (and (or main@%_29_0 .def_103) (and (or |tuple(main@_bb7_0, main@_bb9_0)| .def_238) (and (or .def_139 (= main@%shadow.mem.1_0 main@%_17_0)) (and (or .def_116 .def_242) (and (or .def_242 (= main@%shadow.mem.0_0_3 main@%shadow.mem.1_1)) (and (or .def_139 (= main@%shadow.mem.1_0 .y.18)) (and (= (+ .y.11 (* (- 1) .y.15)) (- 1)) (and (or .def_242 (= main@%shadow.mem.1_1 .y.18)) (and (or .def_202 (= .y.17 (store main@%shadow.mem1.0_0_3 main@%_28_0 main@%_23_0_0))) (and .def_192 (and .def_176 (and .def_100 (and .def_96 (and .def_35 (and .loc.13 .loc.23)))))))))))))))))))))))))))))))))))))))))))))))))))))))))))))) (state |.y.15| |.y.16| |.y.17| |.y.18| |.y.19| |.y.20| |.y.21| |.y.22| |.loc.23| |.loc.24| |.xtv.1| |.xtv.2| |.xtv.3| |.xtv.4| |.xtv.5| |.xtv.6| |.xtv.7| |.xtv.8| |.xtv.9| |.xtv.10| |.xtv.11| |.xtv.12| |.xtv.13| |.xtv.14|))))
(assert (forall ((|.y.11| Int) (|.y.12| Int) (|main@%shadow.mem1.0_0_3| (Array Int Int)) (|main@%shadow.mem.0_0_3| (Array Int Int)) (|main@%_6_0_3| Int) (|main@%_5_0_3| Int) (|main@%i.1.i_0_1| Int) (|main@%_3_0_3| Int) (|.loc.13| Bool) (|.loc.14| Bool) (|main@%_29_0| Bool) (|main@%_23_0_0| Int) (|main@%_28_0| Int) (|main@_bb6_0| Bool) (|main@%shadow.mem.1_1| (Array Int Int)) (|main@%shadow.mem.1_0| (Array Int Int)) (|tuple(main@_bb7_0, main@_bb9_0)| Bool) (|main@_bb7_0| Bool) (|main@%_17_0| (Array Int Int)) (|main@%_27_0_0| Int) (|main@%_27_0| Int) (|main@_bb5_0_0| Bool) (|main@%_25_0| Bool) (|tuple(main@_bb6_0, main@_bb9_0)| Bool) (|.loc.23| Bool) (|.y.20| Int) (|.y.21| Int) (|.y.17| (Array Int Int)) (|.y.18| (Array Int Int)) (|.y.19| Int) (|.y.22| Int) (|.loc.24| Bool) (|.y.15| Int) (|.y.16| Int) (|.xtv.1| Bool) (|.xtv.2| Int) (|.xtv.3| Int) (|.xtv.4| Bool) (|.xtv.5| (Array Int Int)) (|.xtv.6| (Array Int Int)) (|.xtv.7| Bool) (|.xtv.8| Bool) (|.xtv.9| (Array Int Int)) (|.xtv.10| Int) (|.xtv.11| Int) (|.xtv.12| Bool) (|.xtv.13| Bool) (|.xtv.14| Bool)) (=> (state |.y.11| |.y.12| |main@%shadow.mem1.0_0_3| |main@%shadow.mem.0_0_3| |main@%_6_0_3| |main@%_5_0_3| |main@%i.1.i_0_1| |main@%_3_0_3| |.loc.13| |.loc.14| |main@%_29_0| |main@%_23_0_0| |main@%_28_0| |main@_bb6_0| |main@%shadow.mem.1_1| |main@%shadow.mem.1_0| |tuple(main@_bb7_0, main@_bb9_0)| |main@_bb7_0| |main@%_17_0| |main@%_27_0_0| |main@%_27_0| |main@_bb5_0_0| |main@%_25_0| |tuple(main@_bb6_0, main@_bb9_0)|) (not (and .loc.13 .loc.14)))))
(check-sat)
